NAME RRP
OBJSENSE MAX
ROWS
 N  OBJ
 E  ny1     
 E  ny2     
 E  Ny3     
 E  4.3[0]  
 E  4.4[0]  
 E  (4.7)[0,1,0]
 E  (4.8)[2,0,0]
 E  R7      
 L  4.12[0,1]
 E  4.11[0,1]
 E  4.13[0,1]
 L  R11     
COLUMNS
    MARKER    'MARKER'                 'INTORG'
    B0(0)     OBJ       0
    B1(2)     ny2       1
    B1(2)     4.13[0,1]  2
    B2(0)     OBJ       0
    B3(0)     OBJ       0
    B4(3)     ny1       1
    B4(3)     4.3[0]    1
    B4(3)     (4.7)[0,1,0]  1
    B5(3)     Ny3       1
    B5(3)     4.4[0]    1
    B5(3)     (4.8)[2,0,0]  1
    B6(3)     4.3[0]    1
    B6(3)     4.4[0]    1
    B6(3)     4.12[0,1]  1
    B7(2)     R7        1
    B7(2)     4.11[0,1]  -1
    B8(1)     R7        -1
    B9(1)     (4.7)[0,1,0]  -1
    B10(1)    (4.8)[2,0,0]  -1
    B11(3)    OBJ       1
    B11(3)    4.12[0,1]  1
    B11(3)    4.11[0,1]  1
    B11(3)    R11       1
    MARKER    'MARKER'                 'INTEND'
    C12(0)    OBJ       0
    C13(0)    OBJ       0
    C14(0)    OBJ       0
    C15(0)    OBJ       0
RHS
    RHS1      ny1       1
    RHS1      ny2       1
    RHS1      Ny3       1
    RHS1      4.3[0]    1
    RHS1      4.4[0]    1
    RHS1      4.12[0,1]  1
    RHS1      R11       4
BOUNDS
 BV BND1      B0(0)   
 BV BND1      B1(2)   
 BV BND1      B2(0)   
 BV BND1      B3(0)   
 BV BND1      B4(3)   
 BV BND1      B5(3)   
 BV BND1      B6(3)   
 BV BND1      B7(2)   
 BV BND1      B8(1)   
 BV BND1      B9(1)   
 BV BND1      B10(1)  
 BV BND1      B11(3)  
ENDATA
